1 3 100 79294.41
1 3 200 83726.55
1 3 300 81837.72
2 3 100 98313.87
2 3 200 100015.48
2 3 300 105997.09
3 3 100 103406.97
3 3 200 103035.14
3 3 300 106333.61
4 3 100 101804.55
4 3 200 95852.30
4 3 300 97432.33
5 3 100 87909.04
5 3 200 90398.61
5 3 300 91167.87
